NAME /Users/henri/Research/solvers/instances/idol-instances/robust/collection/spp_dkp_Lefebvre_et_al_2026/shortest_path_9_7/uncertainty_sets/discrete_knapsack
ROWS
 N  OBJ
 L  primal_lower
COLUMNS
    MARKER    'MARKER'                 'INTORG'
    y[0,1]     OBJ        0
    y[0,1]     primal_lower -1.31
    y[0,2]     OBJ        0
    y[0,2]     primal_lower -1.07
    y[0,3]     OBJ        0
    y[0,3]     primal_lower -4.02
    y[0,4]     OBJ        0
    y[0,4]     primal_lower -3.87
    y[0,5]     OBJ        0
    y[0,5]     primal_lower -2.97
    y[0,6]     OBJ        0
    y[0,6]     primal_lower -2.46
    y[0,7]     OBJ        0
    y[0,7]     primal_lower -2.38
    y[1,0]     OBJ        0
    y[1,0]     primal_lower -0.91
    y[1,2]     OBJ        0
    y[1,2]     primal_lower -3.34
    y[1,3]     OBJ        0
    y[1,3]     primal_lower -3.89
    y[1,4]     OBJ        0
    y[1,4]     primal_lower -3.14
    y[1,6]     OBJ        0
    y[1,6]     primal_lower -2.17
    y[1,7]     OBJ        0
    y[1,7]     primal_lower -1.92
    y[1,8]     OBJ        0
    y[1,8]     primal_lower -3.49
    y[2,0]     OBJ        0
    y[2,0]     primal_lower -3.67
    y[2,1]     OBJ        0
    y[2,1]     primal_lower -1
    y[2,3]     OBJ        0
    y[2,3]     primal_lower -4.18
    y[2,4]     OBJ        0
    y[2,4]     primal_lower -0.26
    y[2,5]     OBJ        0
    y[2,5]     primal_lower -1.26
    y[2,6]     OBJ        0
    y[2,6]     primal_lower -1.36
    y[2,7]     OBJ        0
    y[2,7]     primal_lower -3.05
    y[3,0]     OBJ        0
    y[3,0]     primal_lower -3.07
    y[3,1]     OBJ        0
    y[3,1]     primal_lower -4.1
    y[3,2]     OBJ        0
    y[3,2]     primal_lower -2.63
    y[3,4]     OBJ        0
    y[3,4]     primal_lower -1.54
    y[3,5]     OBJ        0
    y[3,5]     primal_lower -1.83
    y[3,6]     OBJ        0
    y[3,6]     primal_lower -3.94
    y[3,7]     OBJ        0
    y[3,7]     primal_lower -1.09
    y[3,8]     OBJ        0
    y[3,8]     primal_lower -1.32
    y[4,0]     OBJ        0
    y[4,0]     primal_lower -0.33
    y[4,1]     OBJ        0
    y[4,1]     primal_lower -1.09
    y[4,2]     OBJ        0
    y[4,2]     primal_lower -3.96
    y[4,3]     OBJ        0
    y[4,3]     primal_lower -3.67
    y[4,5]     OBJ        0
    y[4,5]     primal_lower -2.77
    y[4,7]     OBJ        0
    y[4,7]     primal_lower -4.3
    y[5,0]     OBJ        0
    y[5,0]     primal_lower -4.08
    y[5,2]     OBJ        0
    y[5,2]     primal_lower -3.71
    y[5,3]     OBJ        0
    y[5,3]     primal_lower -4
    y[5,4]     OBJ        0
    y[5,4]     primal_lower -2.89
    y[5,7]     OBJ        0
    y[5,7]     primal_lower -1.71
    y[6,0]     OBJ        0
    y[6,0]     primal_lower -2.53
    y[6,1]     OBJ        0
    y[6,1]     primal_lower -1.64
    y[6,2]     OBJ        0
    y[6,2]     primal_lower -2.09
    y[6,3]     OBJ        0
    y[6,3]     primal_lower -1.57
    y[6,7]     OBJ        0
    y[6,7]     primal_lower -0.72
    y[6,8]     OBJ        0
    y[6,8]     primal_lower -3.89
    y[7,0]     OBJ        0
    y[7,0]     primal_lower -2.36
    y[7,1]     OBJ        0
    y[7,1]     primal_lower -3.58
    y[7,2]     OBJ        0
    y[7,2]     primal_lower -2.47
    y[7,3]     OBJ        0
    y[7,3]     primal_lower -0.03
    y[7,4]     OBJ        0
    y[7,4]     primal_lower -2.73
    y[7,5]     OBJ        0
    y[7,5]     primal_lower -3.34
    y[7,6]     OBJ        0
    y[7,6]     primal_lower -1.39
    y[7,8]     OBJ        0
    y[7,8]     primal_lower -0.12
    y[8,1]     OBJ        0
    y[8,1]     primal_lower -0.39
    y[8,3]     OBJ        0
    y[8,3]     primal_lower -1.11
    y[8,6]     OBJ        0
    y[8,6]     primal_lower -2.68
    y[8,7]     OBJ        0
    y[8,7]     primal_lower -3.61
    u[0,1]     OBJ        0
    u[0,1]     primal_lower 69
    u[0,2]     OBJ        0
    u[0,2]     primal_lower 2
    u[0,3]     OBJ        0
    u[0,3]     primal_lower 66
    u[0,4]     OBJ        0
    u[0,4]     primal_lower 18
    u[0,5]     OBJ        0
    u[0,5]     primal_lower 4
    u[0,6]     OBJ        0
    u[0,6]     primal_lower 68
    u[0,7]     OBJ        0
    u[0,7]     primal_lower 25
    u[1,0]     OBJ        0
    u[1,0]     primal_lower 60
    u[1,2]     OBJ        0
    u[1,2]     primal_lower 26
    u[1,3]     OBJ        0
    u[1,3]     primal_lower 9
    u[1,4]     OBJ        0
    u[1,4]     primal_lower 95
    u[1,6]     OBJ        0
    u[1,6]     primal_lower 93
    u[1,7]     OBJ        0
    u[1,7]     primal_lower 63
    u[1,8]     OBJ        0
    u[1,8]     primal_lower 57
    u[2,0]     OBJ        0
    u[2,0]     primal_lower 21
    u[2,1]     OBJ        0
    u[2,1]     primal_lower 3
    u[2,3]     OBJ        0
    u[2,3]     primal_lower 15
    u[2,4]     OBJ        0
    u[2,4]     primal_lower 26
    u[2,5]     OBJ        0
    u[2,5]     primal_lower 60
    u[2,6]     OBJ        0
    u[2,6]     primal_lower 54
    u[2,7]     OBJ        0
    u[2,7]     primal_lower 73
    u[3,0]     OBJ        0
    u[3,0]     primal_lower 27
    u[3,1]     OBJ        0
    u[3,1]     primal_lower 33
    u[3,2]     OBJ        0
    u[3,2]     primal_lower 47
    u[3,4]     OBJ        0
    u[3,4]     primal_lower 34
    u[3,5]     OBJ        0
    u[3,5]     primal_lower 87
    u[3,6]     OBJ        0
    u[3,6]     primal_lower 58
    u[3,7]     OBJ        0
    u[3,7]     primal_lower 62
    u[3,8]     OBJ        0
    u[3,8]     primal_lower 78
    u[4,0]     OBJ        0
    u[4,0]     primal_lower 51
    u[4,1]     OBJ        0
    u[4,1]     primal_lower 30
    u[4,2]     OBJ        0
    u[4,2]     primal_lower 76
    u[4,3]     OBJ        0
    u[4,3]     primal_lower 79
    u[4,5]     OBJ        0
    u[4,5]     primal_lower 34
    u[4,7]     OBJ        0
    u[4,7]     primal_lower 74
    u[5,0]     OBJ        0
    u[5,0]     primal_lower 74
    u[5,2]     OBJ        0
    u[5,2]     primal_lower 15
    u[5,3]     OBJ        0
    u[5,3]     primal_lower 46
    u[5,4]     OBJ        0
    u[5,4]     primal_lower 52
    u[5,7]     OBJ        0
    u[5,7]     primal_lower 17
    u[6,0]     OBJ        0
    u[6,0]     primal_lower 31
    u[6,1]     OBJ        0
    u[6,1]     primal_lower 85
    u[6,2]     OBJ        0
    u[6,2]     primal_lower 25
    u[6,3]     OBJ        0
    u[6,3]     primal_lower 35
    u[6,7]     OBJ        0
    u[6,7]     primal_lower 54
    u[6,8]     OBJ        0
    u[6,8]     primal_lower 24
    u[7,0]     OBJ        0
    u[7,0]     primal_lower 92
    u[7,1]     OBJ        0
    u[7,1]     primal_lower 32
    u[7,2]     OBJ        0
    u[7,2]     primal_lower 94
    u[7,3]     OBJ        0
    u[7,3]     primal_lower 25
    u[7,4]     OBJ        0
    u[7,4]     primal_lower 14
    u[7,5]     OBJ        0
    u[7,5]     primal_lower 90
    u[7,6]     OBJ        0
    u[7,6]     primal_lower 64
    u[7,8]     OBJ        0
    u[7,8]     primal_lower 24
    u[8,1]     OBJ        0
    u[8,1]     primal_lower 93
    u[8,3]     OBJ        0
    u[8,3]     primal_lower 75
    u[8,6]     OBJ        0
    u[8,6]     primal_lower 3
    u[8,7]     OBJ        0
    u[8,7]     primal_lower 38
    MARKER    'MARKER'                 'INTEND'
RHS
    RHS       primal_lower 252
BOUNDS
 LI BND       y[0,1]     0
 UI BND       y[0,1]     1
 LI BND       y[0,2]     0
 UI BND       y[0,2]     1
 LI BND       y[0,3]     0
 UI BND       y[0,3]     1
 LI BND       y[0,4]     0
 UI BND       y[0,4]     1
 LI BND       y[0,5]     0
 UI BND       y[0,5]     1
 LI BND       y[0,6]     0
 UI BND       y[0,6]     1
 LI BND       y[0,7]     0
 UI BND       y[0,7]     1
 LI BND       y[1,0]     0
 UI BND       y[1,0]     1
 LI BND       y[1,2]     0
 UI BND       y[1,2]     1
 LI BND       y[1,3]     0
 UI BND       y[1,3]     1
 LI BND       y[1,4]     0
 UI BND       y[1,4]     1
 LI BND       y[1,6]     0
 UI BND       y[1,6]     1
 LI BND       y[1,7]     0
 UI BND       y[1,7]     1
 LI BND       y[1,8]     0
 UI BND       y[1,8]     1
 LI BND       y[2,0]     0
 UI BND       y[2,0]     1
 LI BND       y[2,1]     0
 UI BND       y[2,1]     1
 LI BND       y[2,3]     0
 UI BND       y[2,3]     1
 LI BND       y[2,4]     0
 UI BND       y[2,4]     1
 LI BND       y[2,5]     0
 UI BND       y[2,5]     1
 LI BND       y[2,6]     0
 UI BND       y[2,6]     1
 LI BND       y[2,7]     0
 UI BND       y[2,7]     1
 LI BND       y[3,0]     0
 UI BND       y[3,0]     1
 LI BND       y[3,1]     0
 UI BND       y[3,1]     1
 LI BND       y[3,2]     0
 UI BND       y[3,2]     1
 LI BND       y[3,4]     0
 UI BND       y[3,4]     1
 LI BND       y[3,5]     0
 UI BND       y[3,5]     1
 LI BND       y[3,6]     0
 UI BND       y[3,6]     1
 LI BND       y[3,7]     0
 UI BND       y[3,7]     1
 LI BND       y[3,8]     0
 UI BND       y[3,8]     1
 LI BND       y[4,0]     0
 UI BND       y[4,0]     1
 LI BND       y[4,1]     0
 UI BND       y[4,1]     1
 LI BND       y[4,2]     0
 UI BND       y[4,2]     1
 LI BND       y[4,3]     0
 UI BND       y[4,3]     1
 LI BND       y[4,5]     0
 UI BND       y[4,5]     1
 LI BND       y[4,7]     0
 UI BND       y[4,7]     1
 LI BND       y[5,0]     0
 UI BND       y[5,0]     1
 LI BND       y[5,2]     0
 UI BND       y[5,2]     1
 LI BND       y[5,3]     0
 UI BND       y[5,3]     1
 LI BND       y[5,4]     0
 UI BND       y[5,4]     1
 LI BND       y[5,7]     0
 UI BND       y[5,7]     1
 LI BND       y[6,0]     0
 UI BND       y[6,0]     1
 LI BND       y[6,1]     0
 UI BND       y[6,1]     1
 LI BND       y[6,2]     0
 UI BND       y[6,2]     1
 LI BND       y[6,3]     0
 UI BND       y[6,3]     1
 LI BND       y[6,7]     0
 UI BND       y[6,7]     1
 LI BND       y[6,8]     0
 UI BND       y[6,8]     1
 LI BND       y[7,0]     0
 UI BND       y[7,0]     1
 LI BND       y[7,1]     0
 UI BND       y[7,1]     1
 LI BND       y[7,2]     0
 UI BND       y[7,2]     1
 LI BND       y[7,3]     0
 UI BND       y[7,3]     1
 LI BND       y[7,4]     0
 UI BND       y[7,4]     1
 LI BND       y[7,5]     0
 UI BND       y[7,5]     1
 LI BND       y[7,6]     0
 UI BND       y[7,6]     1
 LI BND       y[7,8]     0
 UI BND       y[7,8]     1
 LI BND       y[8,1]     0
 UI BND       y[8,1]     1
 LI BND       y[8,3]     0
 UI BND       y[8,3]     1
 LI BND       y[8,6]     0
 UI BND       y[8,6]     1
 LI BND       y[8,7]     0
 UI BND       y[8,7]     1
 LI BND       u[0,1]     0
 UI BND       u[0,1]     1
 LI BND       u[0,2]     0
 UI BND       u[0,2]     1
 LI BND       u[0,3]     0
 UI BND       u[0,3]     1
 LI BND       u[0,4]     0
 UI BND       u[0,4]     1
 LI BND       u[0,5]     0
 UI BND       u[0,5]     1
 LI BND       u[0,6]     0
 UI BND       u[0,6]     1
 LI BND       u[0,7]     0
 UI BND       u[0,7]     1
 LI BND       u[1,0]     0
 UI BND       u[1,0]     1
 LI BND       u[1,2]     0
 UI BND       u[1,2]     1
 LI BND       u[1,3]     0
 UI BND       u[1,3]     1
 LI BND       u[1,4]     0
 UI BND       u[1,4]     1
 LI BND       u[1,6]     0
 UI BND       u[1,6]     1
 LI BND       u[1,7]     0
 UI BND       u[1,7]     1
 LI BND       u[1,8]     0
 UI BND       u[1,8]     1
 LI BND       u[2,0]     0
 UI BND       u[2,0]     1
 LI BND       u[2,1]     0
 UI BND       u[2,1]     1
 LI BND       u[2,3]     0
 UI BND       u[2,3]     1
 LI BND       u[2,4]     0
 UI BND       u[2,4]     1
 LI BND       u[2,5]     0
 UI BND       u[2,5]     1
 LI BND       u[2,6]     0
 UI BND       u[2,6]     1
 LI BND       u[2,7]     0
 UI BND       u[2,7]     1
 LI BND       u[3,0]     0
 UI BND       u[3,0]     1
 LI BND       u[3,1]     0
 UI BND       u[3,1]     1
 LI BND       u[3,2]     0
 UI BND       u[3,2]     1
 LI BND       u[3,4]     0
 UI BND       u[3,4]     1
 LI BND       u[3,5]     0
 UI BND       u[3,5]     1
 LI BND       u[3,6]     0
 UI BND       u[3,6]     1
 LI BND       u[3,7]     0
 UI BND       u[3,7]     1
 LI BND       u[3,8]     0
 UI BND       u[3,8]     1
 LI BND       u[4,0]     0
 UI BND       u[4,0]     1
 LI BND       u[4,1]     0
 UI BND       u[4,1]     1
 LI BND       u[4,2]     0
 UI BND       u[4,2]     1
 LI BND       u[4,3]     0
 UI BND       u[4,3]     1
 LI BND       u[4,5]     0
 UI BND       u[4,5]     1
 LI BND       u[4,7]     0
 UI BND       u[4,7]     1
 LI BND       u[5,0]     0
 UI BND       u[5,0]     1
 LI BND       u[5,2]     0
 UI BND       u[5,2]     1
 LI BND       u[5,3]     0
 UI BND       u[5,3]     1
 LI BND       u[5,4]     0
 UI BND       u[5,4]     1
 LI BND       u[5,7]     0
 UI BND       u[5,7]     1
 LI BND       u[6,0]     0
 UI BND       u[6,0]     1
 LI BND       u[6,1]     0
 UI BND       u[6,1]     1
 LI BND       u[6,2]     0
 UI BND       u[6,2]     1
 LI BND       u[6,3]     0
 UI BND       u[6,3]     1
 LI BND       u[6,7]     0
 UI BND       u[6,7]     1
 LI BND       u[6,8]     0
 UI BND       u[6,8]     1
 LI BND       u[7,0]     0
 UI BND       u[7,0]     1
 LI BND       u[7,1]     0
 UI BND       u[7,1]     1
 LI BND       u[7,2]     0
 UI BND       u[7,2]     1
 LI BND       u[7,3]     0
 UI BND       u[7,3]     1
 LI BND       u[7,4]     0
 UI BND       u[7,4]     1
 LI BND       u[7,5]     0
 UI BND       u[7,5]     1
 LI BND       u[7,6]     0
 UI BND       u[7,6]     1
 LI BND       u[7,8]     0
 UI BND       u[7,8]     1
 LI BND       u[8,1]     0
 UI BND       u[8,1]     1
 LI BND       u[8,3]     0
 UI BND       u[8,3]     1
 LI BND       u[8,6]     0
 UI BND       u[8,6]     1
 LI BND       u[8,7]     0
 UI BND       u[8,7]     1
ENDATA
